
Gurobi 13.0.2 (win64) logging started Fri Jul 24 09:34:09 2026

Set parameter LogFile to value "E:\codes\ExactEBRP\results\gf_c0_mechanism_transfer_c5_round30\runs\stage2__moderate_seed5302__c4_candidate__300s\external\native_logs\L0.0.1.0.1.1.0.1.1_lp.gurobi.log"
Gurobi Optimizer version 13.0.2 build v13.0.2rc1 (win64 - Windows 10.0 (19045.2))

CPU model: 12th Gen Intel(R) Core(TM) i7-12700KF, instruction set [SSE2|AVX|AVX2]
Thread count: 12 physical cores, 20 logical processors, using up to 1 threads

Non-default parameters:
TimeLimit  262.4766169
MIPGap  0
MIPGapAbs  0
LogToConsole  0
Threads  1

Optimize a model with 11931 rows, 3382 columns and 67404 nonzeros (Min)
Model fingerprint: 0xd7c9705a
Model has 21 linear objective coefficients
Coefficient statistics:
  Matrix range     [9e-03, 2e+04]
  Objective range  [9e-03, 1e+00]
  Bounds range     [1e-02, 2e+02]
  RHS range        [1e-02, 5e+04]

Presolve removed 451 rows and 102 columns
Presolve time: 0.04s
Presolved: 11480 rows, 3469 columns, 66335 nonzeros

Iteration    Objective       Primal Inf.    Dual Inf.      Time
       0    9.7470947e-03   1.883320e+02   0.000000e+00      0s
    3434    1.6121868e-02   0.000000e+00   0.000000e+00      0s

Solved in 3434 iterations and 0.25 seconds (0.73 work units)
Optimal objective  1.612186757e-02

User-callback calls 3577, time in user-callback 0.00 sec
